NAME : tsp30_7.173.tour
COMMENT : Length = 173
COMMENT : Found by LKH [Keld Helsgaun]
TYPE : TOUR
DIMENSION : 30
TOUR_SECTION
1
8
28
27
4
16
23
13
19
9
6
12
26
5
24
17
25
20
22
18
21
15
29
30
3
2
7
14
11
10
-1
EOF
